program_setup_time=600;
sequence_setup_time=300;
max_colors_per_job=2;
min_cycles_per_job=2;
max_cycles_per_job=30;
max_jobs=50;
num_colors=5;
num_programs=1;
num_moulds=21;
num_demands=35;
num_lines=3;
reference_makespan=123840;
reference_tardiness=3062181;
reference_waste=51;
available_moulds=[4,6,4,4,4,6,4,4,4,6,4,6,4,4,8,8,10,4,8,4,6];
slots_per_program=[7];
cycle_time_for_program=[3060];
program_for_mould=[1,1,1,1,1,1,1,1,1,1,1,1,1,1,1,1,1,1,1,1,1];
line_for_mould=[1,2,3,1,1,2,1,2,2,2,2,2,2,2,2,3,3,3,3,2,2];
color_compatibility=array2d(colors, colors, [1,1,1,0,1,1,1,1,1,1,1,1,1,1,0,0,1,1,1,0,1,1,0,0,1]);
demand_qty=[5,1,3,2,4,3,10,1,3,14,14,1,33,3,4,14,1,6,3,2,22,4,11,5,9,1,6,4,1,9,1,11,6,3,2];
demand_duedate=[-50436,-50436,-50436,-50436,-50436,-50436,-50436,-50436,-50436,-50436,-50436,-50436,-50436,-50436,-50436,-50436,-50436,-50436,-50436,-50436,-50436,-50436,-50436,-50436,-50436,-50436,-50436,-50436,27649,27649,27649,144778,222863,222863,222863];
demand_color=[1,2,3,3,3,3,4,2,2,4,4,1,4,4,4,4,3,3,4,5,5,4,4,4,1,2,2,3,4,4,3,4,4,4,1];
demand_mould=[1,2,3,4,5,1,6,7,1,8,9,10,11,12,2,13,14,15,16,8,11,1,17,18,5,8,11,19,20,21,11,20,1,21,2];
